root_relax = 155.25
QCR_time = 6.5941
opt = true
obj_val = 155.0
solved_time = 1.2184
explored_nodes = 69996
nb_dom_cuts = 240
robi/QCR_QP_Dom/bcc70529.txt"
Set parameter Presolve to value 0
Set parameter AggFill to value -1
Set parameter Aggregate to value 0
Set parameter Heuristics to value 0
Set parameter LPWarmStart to value 0
Set parameter NLPHeur to value 0
Set parameter NoRelHeurTime to value 0
Set parameter PreCrush to value 0
Set parameter PreDepRow to value 0
Set parameter PreDual to value 0
Set parameter PrePasses to value -1
Set parameter RINS to value 0
Set parameter Symmetry to value 0
Set parameter PreQLinearize to value 0
Set parameter NonConvex to value 0

Gurobi 12.0.0 (linux64) logging started Wed Feb  5 18:37:44 2025

Set parameter LogFile to value "./res/Gurobi/QCR_QP_Dom/bcc70529.txt"
Set parameter PreCrush to value 0
Set parameter PrePasses to value -1
Set parameter AggFill to value -1
Set parameter NoRelHeurTime to value 0
Set parameter NLPHeur to value 0
Set parameter NonConvex to value 0
Set parameter LPWarmStart to value 0
Set parameter PreDepRow to value 0
Set parameter Symmetry to value 0
Set parameter Presolve to value 0
Gurobi Optimizer version 12.0.0 build v12.0.0rc1 (linux64 - "Debian GNU/Linux 12 (bookworm)")

CPU model: Intel(R) Xeon(R) CPU E5-2650 v3 @ 2.30GHz, instruction set [SSE2|AVX|AVX2]
Thread count: 20 physical cores, 40 logical processors, using up to 20 threads

Non-default parameters:
TimeLimit  1800
LPWarmStart  0
Heuristics  0
RINS  0
NLPHeur  0
Symmetry  0
Aggregate  0
PreDual  0
NonConvex  0
PreDepRow  0
PreQLinearize  0
Presolve  0

Optimize a model with 240 rows, 33 columns and 2400 nonzeros
Model fingerprint: 0x6dcb60a5
Model has 309 quadratic objective terms
Variable types: 0 continuous, 33 integer (33 binary)
Coefficient statistics:
  Matrix range     [1e+00, 1e+00]
  Objective range  [2e+01, 3e+01]
  QObjective range [2e+00, 1e+01]
  Bounds range     [0e+00, 0e+00]
  RHS range        [1e+00, 9e+00]
Variable types: 0 continuous, 33 integer (33 binary)

Root relaxation: objective -1.552501e+02, 49 iterations, 0.00 seconds (0.00 work units)

    Nodes    |    Current Node    |     Objective Bounds      |     Work
 Expl Unexpl |  Obj  Depth IntInf | Incumbent    BestBd   Gap | It/Node Time

     0     0 -155.25008    0   33          - -155.25008      -     -    0s
     0     0 -155.25008    0   33          - -155.25008      -     -    0s
     0     2 -155.25008    0   33          - -155.25008      -     -    0s
*  267  1068              26    -155.0000000 -155.25007  0.16%   2.0    0s

Explored 69996 nodes (147837 simplex iterations) in 1.22 seconds (0.84 work units)
Thread count was 20 (of 40 available processors)

Solution count 1: -155 

Optimal solution found (tolerance 1.00e-04)
Best objective -1.550000000000e+02, best bound -1.550000225085e+02, gap 0.0000%

User-callback calls 140176, time in user-callback 0.03 sec
